10 6 15 4 18 14 11 16 5 9 19 8 0 2 13 12 17 1 7 3  
10 6 15 4 18 14 11 5 0 8 19 16 9 13 12 17 2 7 3 1  
4 10 6 18 15 14 11 5 9 19 8 16 0 13 12 7 2 17 1 3  
10 6 15 4 18 14 11 5 9 8 19 0 12 17 1 2 7 13 16 3  
10 6 15 4 18 14 16 11 5 9 19 8 17 12 0 1 7 13 2 3  
10 6 15 4 18 14 11 5 9 8 19 16 0 13 12 17 7 3 1 2  
10 6 15 4 18 14 11 5 9 8 19 16 0 13 12 17 2 1 7 3  
4 10 6 18 15 14 11 5 9 8 19 16 0 13 12 17 2 7 1 3  
10 6 15 4 18 14 11 16 5 9 19 8 17 12 0 2 7 3 13 1  
10 6 15 4 18 14 11 5 9 8 19 0 12 17 1 2 7 13 16 3  
4 10 6 18 15 14 11 5 9 8 19 16 0 13 12 17 7 2 3 1  
4 10 6 18 15 14 11 5 9 8 19 16 0 13 12 17 7 2 3 1  
10 6 15 4 18 14 11 5 9 19 2 8 7 13 12 0 1 17 16 3  
10 6 15 4 18 14 11 5 9 8 19 16 0 13 12 17 1 7 2 3  
10 6 15 4 18 14 11 5 9 8 19 16 0 13 12 17 2 7 1 3  
4 10 6 15 18 14 5 9 11 19 12 7 2 0 8 17 1 13 16 3  
10 6 15 4 18 14 11 5 17 8 12 9 19 2 0 1 13 7 16 3  
10 6 15 4 18 14 11 5 9 19 8 0 13 12 17 1 7 2 16 3  
10 6 15 4 18 14 11 5 8 9 19 16 0 13 12 17 7 2 1 3  
10 6 15 4 18 14 11 5 9 8 19 16 0 13 12 17 1 7 2 3  
10 6 15 4 18 14 11 5 9 19 8 16 0 13 12 17 7 2 3 1  
4 10 6 18 15 14 11 5 9 8 19 16 17 13 12 7 2 0 1 3  
10 6 15 4 18 14 11 5 8 0 12 9 19 2 7 17 1 13 16 3  
6 10 4 15 18 11 5 9 19 12 17 13 2 16 7 1 0 8 3 14  
6 10 4 15 18 11 5 9 19 12 17 13 2 16 7 8 0 1 3 14  
10 6 15 4 18 14 11 5 17 8 12 9 19 2 0 1 13 7 16 3  
10 6 15 4 18 14 16 11 5 9 19 8 17 12 0 1 7 2 13 3  
4 15 6 10 18 14 11 5 9 8 19 7 2 12 0 17 1 13 16 3  
10 6 15 4 18 14 11 5 9 8 19 16 0 13 12 17 1 7 2 3  
